c file = i-5-12-man-02.cnf
c
c (xWork) 206 % B.cover.f.exh  ../xBenchm/coverBinate/tiny/i-5-12-man-02.cnf
c 
c Hasse rank order of all solutions (feasible and unfeasible) 
c .. almost ready for plotting the Hasse graph 
c .. coord;value,isFeasible,cntNotCovered
c solutionAry(0) = {00000;120,0,12}
c solutionAry(1) = {10000;11,0,1} {01000;11,0,1} {00100;11,0,1} {00010;11,0,1} {00001;11,0,1}
c solutionAry(2) = {11000;22,0,2} {10100;32,0,3} {10010;22,0,2} {10001;32,0,3} {01100;22,0,2} {01010;12,0,1} {01001;2,1,0} {00110;12,0,1} {00101;2,1,0} {00011;12,0,1}
c solutionAry(3) = {11100;43,0,4} {11010;43,0,4} {11001;43,0,4} {10110;43,0,4} {10101;53,0,5} {10011;43,0,4} {01110;33,0,3} {01101;13,0,1} {01011;13,0,1} {00111;13,0,1}
c solutionAry(4) = {11110;74,0,7} {11101;64,0,6} {11011;64,0,6} {10111;64,0,6} {01111;34,0,3}
c solutionAry(5) = {11111;95,0,9}
c 
c # Output from B.cover.f.exh: 
c # Exhaustive enumeration of instance ../xBenchm/coverBinate/tiny/i-5-12-man-02.cnf 
c # .. completed on Sat Oct 18 13:38:32 EDT 2014 
c # table below can be read in R 
c rank	cntCoord	cntFeasible	probOfFeasible
c 0	1	0 	   0
c 1	5	0 	   0
c 2	10	2 	 0.2
c 3	10	0 	   0
c 4	5	0 	   0
c 5	1	0 	   0
c # there are 2 valueBest solutions
c # 00101;2
c # 01001;2
c # 
c #	nDim	cntCoordLmt	runtimeCoord	runtimeProbe	hostID 
c #	5	32	0.001538	0.0024730000000000004	brglez@triangle-Darwin-13.4.0
c
p cnf 5 12
-1 -2 0
-1 -3 0
-1 -4 0
-1 -5 0
-1 -6 0
-2 -3 0
-2 -4 0
-3 -4 0
-5 -1 0
1 2 3 0
4 5 1 0
-1 2 -3 4 0
